unsat
(define-fun f ((x0 (BitVec 64)) (x1 (BitVec 64))) (BitVec 64) (bvudiv x0 x1))
(define-fun f ((x0 (BitVec 64)) (x1 (BitVec 64))) (BitVec 64) (bvudiv x0 x1))
int-arith24.sl running time : 0 m .022361642 s
times : .022361642
